p wcnf 3000 300 1
1 1 0
1 2 0
1 3 0
1 4 0
1 5 0
1 6 0
1 7 0
1 8 0
1 9 0
1 10 0
1 11 0
1 12 0
1 13 0
1 14 0
1 15 0
1 1 1 1 1 1 1 1 1 1 1 1 1 1 1 0
1 1 2 2 2 2 2 2 2 2 2 2 2 2 2 0
1 2 2 2 2 2 2 2 2 2 2 3 3 3 3 0
1 3 3 3 3 3 3 3 3 3 3 3 3 3 3 0
1 3 3 3 3 3 3 3 3 3 3 4 4 4 4 0
1 4 4 4 4 4 4 4 4 4 4 4 4 4 4 0
1 4 4 4 4 4 4 4 4 4 4 4 4 4 4 0
1 5 5 5 5 5 5 5 5 5 5 5 5 5 5 0
1 5 5 5 5 5 5 5 5 5 5 5 6 6 6 0
1 6 6 6 6 6 6 6 6 6 6 6 6 6 6 0
1 6 6 6 6 6 6 6 6 6 6 6 6 6 6 0
1 6 6 6 7 7 7 7 7 7 7 7 7 7 7 0
1 7 7 7 7 7 7 7 7 7 7 7 7 7 7 0
1 7 8 8 8 8 8 8 8 8 8 8 8 8 8 0
1 8 8 8 8 8 8 8 8 8 8 8 8 8 8 0
1 8 8 8 8 8 9 9 9 9 9 9 9 9 9 0
1 9 9 9 9 9 9 9 9 9 9 9 9 9 9 0
1 10 10 10 10 10 10 10 10 10 10 10 10 10 10 0
1 10 10 10 10 10 10 10 10 10 10 10 10 10 10 0
1 10 10 10 11 11 11 11 11 11 11 11 11 11 11 0
1 11 11 11 11 11 11 11 11 11 11 11 11 11 11 0
1 11 11 11 12 12 12 12 12 12 12 12 12 12 12 0
1 12 12 12 12 12 12 12 12 12 12 12 12 12 12 0
1 12 12 13 13 13 13 13 13 13 13 13 13 13 13 0
1 13 13 13 13 13 13 13 13 13 13 13 13 13 13 0
1 13 13 14 14 14 14 14 14 14 14 14 14 14 14 0
1 14 14 14 14 14 14 14 14 14 14 14 14 14 14 0
1 14 14 14 14 14 14 14 14 14 14 14 14 14 14 0
1 15 15 15 15 15 15 15 15 15 15 15 15 15 15 0
1 15 15 15 15 15 15 15 15 15 15 15 15 15 15 0
1 15 15 15 15 15 16 16 16 16 16 16 16 16 16 0
1 16 16 16 16 16 16 16 16 16 16 16 16 16 16 0
1 16 16 16 17 17 17 17 17 17 17 17 17 17 17 0
1 17 17 17 17 17 17 17 17 17 17 17 17 17 17 0
1 17 17 17 17 17 17 17 17 17 17 17 17 18 18 0
1 18 18 18 18 18 18 18 18 18 18 18 18 18 18 0
1 18 18 18 18 18 19 19 19 19 19 19 19 19 19 0
1 19 19 19 19 19 19 19 19 19 19 19 19 19 19 0
1 19 19 19 20 20 20 20 20 20 20 20 20 20 20 0
1 20 20 20 20 20 20 20 20 20 20 20 20 20 20 0
1 20 20 20 20 20 20 20 20 21 21 21 21 21 21 0
1 21 21 21 21 21 21 21 21 21 21 21 21 21 21 0
1 21 21 21 21 21 21 21 21 21 22 22 22 22 22 0
1 22 22 22 22 22 22 22 22 22 22 22 22 22 22 0
1 22 22 22 22 22 23 23 23 23 23 23 23 23 23 0
1 23 23 23 23 23 23 23 23 23 23 23 23 23 23 0
1 23 23 23 23 23 24 24 24 24 24 24 24 24 24 0
1 24 24 24 24 24 24 24 24 24 24 24 24 24 24 0
1 24 24 24 24 24 25 25 25 25 25 25 25 25 25 0
1 25 25 25 25 25 25 25 25 25 25 25 25 25 25 0
1 25 25 25 25 25 25 25 25 25 25 25 25 25 25 0
1 25 25 25 25 25 25 26 26 26 26 26 26 26 26 0
1 26 26 26 26 26 26 26 26 26 26 26 27 27 27 0
1 27 27 27 27 27 27 27 27 27 27 27 27 27 27 0
1 27 27 27 27 27 27 27 27 27 27 28 28 28 28 0
1 28 28 28 28 28 28 28 28 28 28 28 28 28 28 0
1 28 28 28 28 28 28 28 28 28 28 28 28 28 28 0
1 28 28 28 28 29 29 29 29 29 29 29 29 29 29 0
1 29 29 29 29 29 29 29 29 29 29 29 29 29 29 0
1 29 29 29 29 29 29 29 29 29 30 30 30 30 30 0
1 30 30 30 30 30 30 30 30 30 30 30 30 30 30 0
1 30 30 30 31 31 31 31 31 31 31 31 31 31 31 0
1 31 31 31 31 31 31 31 31 31 31 31 31 31 31 0
1 31 32 32 32 32 32 32 32 32 32 32 32 32 32 0
1 32 32 32 32 32 32 32 32 32 32 32 32 32 33 0
1 33 33 33 33 33 33 33 33 33 33 33 33 33 33 0
1 33 33 33 33 33 33 33 33 33 33 33 33 33 33 0
1 33 34 34 34 34 34 34 34 34 34 34 34 34 34 0
1 34 34 34 34 34 34 34 34 34 34 34 34 34 34 0
1 34 35 35 35 35 35 35 35 35 35 35 35 35 35 0
1 35 35 35 35 35 35 35 35 35 35 35 35 35 35 0
1 35 35 35 36 36 36 36 36 36 36 36 36 36 36 0
1 36 36 36 36 36 36 36 36 36 36 36 36 36 36 0
1 36 36 36 36 36 36 36 36 36 36 36 36 36 36 0
1 37 37 37 37 37 37 37 37 37 37 37 37 37 37 0
1 37 37 37 37 37 37 37 37 37 37 37 37 37 38 0
1 38 38 38 38 38 38 38 38 38 38 38 38 38 38 0
1 38 38 38 38 38 38 38 38 39 39 39 39 39 39 0
1 39 39 39 39 39 39 39 39 39 39 39 39 39 39 0
1 39 39 39 39 39 39 39 39 40 40 40 40 40 40 0
1 40 40 40 40 40 40 40 40 40 40 40 40 40 40 0
1 40 40 40 40 40 40 40 40 40 40 40 40 40 40 0
1 41 41 41 41 41 41 41 41 41 41 41 41 41 41 0
1 41 41 41 41 41 41 41 42 42 42 42 42 42 42 0
1 42 42 42 42 42 42 42 42 42 42 42 42 42 42 0
1 42 42 42 42 42 42 42 42 42 42 42 42 42 42 0
1 42 43 43 43 43 43 43 43 43 43 43 43 43 43 0
1 43 43 43 43 43 43 43 43 43 43 43 43 43 44 0
1 44 44 44 44 44 44 44 44 44 44 44 44 44 44 0
1 44 44 44 44 44 44 44 44 44 44 44 44 44 44 0
1 44 44 45 45 45 45 45 45 45 45 45 45 45 45 0
1 45 45 45 45 45 45 45 45 45 45 45 45 45 45 0
1 45 46 46 46 46 46 46 46 46 46 46 46 46 46 0
1 46 46 46 46 46 46 46 46 46 46 46 47 47 47 0
1 47 47 47 47 47 47 47 47 47 47 47 47 47 47 0
1 47 47 47 47 47 47 47 47 47 47 47 47 47 47 0
1 47 47 47 48 48 48 48 48 48 48 48 48 48 48 0
1 48 48 48 48 48 48 48 48 48 48 48 48 48 48 0
1 48 49 49 49 49 49 49 49 49 49 49 49 49 49 0
1 49 49 49 49 49 49 49 49 49 49 49 49 49 49 0
1 49 49 49 49 49 49 49 49 49 49 49 50 50 50 0
1 50 50 50 50 50 50 50 50 50 50 50 50 50 50 0
1 50 50 50 50 50 50 50 50 50 50 50 50 50 50 0
1 51 51 51 51 51 51 51 51 51 51 51 51 51 51 0
1 51 51 51 51 51 51 51 51 51 51 51 51 51 51 0
1 52 52 52 52 52 52 52 52 52 52 52 52 52 52 0
1 52 52 52 52 52 52 52 52 52 52 52 53 53 53 0
1 53 53 53 53 53 53 53 53 53 53 53 53 53 53 0
1 53 53 53 53 53 53 54 54 54 54 54 54 54 54 0
1 54 54 54 54 54 54 54 54 54 54 54 54 54 54 0
1 54 54 54 54 54 55 55 55 55 55 55 55 55 55 0
1 55 55 55 55 55 55 55 55 55 55 55 55 55 55 0
1 55 55 55 55 55 55 55 55 55 55 56 56 56 56 0
1 56 56 56 56 56 56 56 56 56 56 56 56 56 56 0
1 56 56 56 56 56 56 56 56 56 56 57 57 57 57 0
1 57 57 57 57 57 57 57 57 57 57 57 57 57 57 0
1 57 57 57 57 57 58 58 58 58 58 58 58 58 58 0
1 58 58 58 58 58 58 58 58 58 58 58 58 58 58 0
1 59 59 59 59 59 59 59 59 59 59 59 59 59 59 0
1 59 59 59 59 59 59 59 59 59 59 60 60 60 60 0
1 60 60 60 60 60 60 60 60 60 60 60 60 60 60 0
1 60 60 60 60 60 60 60 61 61 61 61 61 61 61 0
1 61 61 61 61 61 61 61 61 61 61 61 61 61 61 0
1 61 61 61 61 61 61 62 62 62 62 62 62 62 62 0
1 62 62 62 62 62 62 62 62 62 62 62 62 62 62 0
1 62 62 63 63 63 63 63 63 63 63 63 63 63 63 0
1 63 63 63 63 63 63 63 63 63 63 63 63 63 63 0
1 63 63 63 63 63 64 64 64 64 64 64 64 64 64 0
1 64 64 64 64 64 64 64 64 64 64 64 64 64 64 0
1 64 64 64 64 64 64 64 64 64 65 65 65 65 65 0
1 65 65 65 65 65 65 65 65 65 65 65 65 65 65 0
1 65 65 65 65 65 66 66 66 66 66 66 66 66 66 0
1 66 66 66 66 66 66 66 66 66 66 66 66 66 66 0
1 66 66 66 66 66 67 67 67 67 67 67 67 67 67 0
1 67 67 67 67 67 67 67 67 67 67 67 67 67 67 0
1 67 67 67 67 67 67 67 67 67 67 68 68 68 68 0
1 68 68 68 68 68 68 68 68 68 68 68 68 68 68 0
1 68 68 68 68 68 68 68 68 68 68 68 69 69 69 0
1 69 69 69 69 69 69 69 69 69 69 69 69 69 69 0
1 69 69 69 69 70 70 70 70 70 70 70 70 70 70 0
1 70 70 70 70 70 70 70 70 70 70 70 70 70 70 0
1 70 70 70 70 70 70 70 70 70 70 70 70 71 71 0
1 71 71 71 71 71 71 71 71 71 71 71 71 71 71 0
1 71 71 71 71 71 71 71 71 72 72 72 72 72 72 0
1 72 72 72 72 72 72 72 72 72 72 72 72 72 72 0
1 72 72 72 72 72 72 72 72 73 73 73 73 73 73 0
1 73 73 73 73 73 73 73 73 73 73 73 73 73 73 0
1 73 74 74 74 74 74 74 74 74 74 74 74 74 74 0
1 74 74 74 74 74 74 74 74 74 74 74 74 74 74 0
1 75 75 75 75 75 75 75 75 75 75 75 75 75 75 0
1 75 75 75 75 75 75 75 75 75 75 75 75 75 75 0
1 75 75 75 76 76 76 76 76 76 76 76 76 76 76 0
1 76 76 76 76 76 76 76 76 76 76 76 76 77 77 0
1 77 77 77 77 77 77 77 77 77 77 77 77 77 77 0
1 77 77 77 77 77 77 77 77 77 77 78 78 78 78 0
1 78 78 78 78 78 78 78 78 78 78 78 78 78 78 0
1 78 78 78 78 78 78 78 78 78 79 79 79 79 79 0
1 79 79 79 79 79 79 79 79 79 79 79 79 79 79 0
1 79 79 79 79 79 79 80 80 80 80 80 80 80 80 0
1 80 80 80 80 80 80 80 80 80 80 80 80 80 80 0
1 80 80 80 80 80 80 80 81 81 81 81 81 81 81 0
1 81 81 81 81 81 81 81 81 81 81 81 81 81 81 0
1 81 81 81 81 81 81 81 82 82 82 82 82 82 82 0
1 82 82 82 82 82 82 82 82 82 82 82 82 82 82 0
1 82 82 82 82 82 82 82 83 83 83 83 83 83 83 0
1 83 83 83 83 83 83 83 83 83 83 83 83 83 83 0
1 83 83 83 84 84 84 84 84 84 84 84 84 84 84 0
1 84 84 84 84 84 84 84 84 84 84 84 84 84 84 0
1 84 84 84 85 85 85 85 85 85 85 85 85 85 85 0
1 85 85 85 85 85 85 85 85 85 85 85 85 85 85 0
1 85 85 85 85 85 85 85 85 85 85 85 86 86 86 0
1 86 86 86 86 86 86 86 86 86 86 86 86 86 86 0
1 86 86 86 86 86 86 86 86 86 86 86 86 86 86 0
1 87 87 87 87 87 87 87 87 87 87 87 87 87 87 0
1 87 87 87 87 87 87 87 87 87 87 88 88 88 88 0
1 88 88 88 88 88 88 88 88 88 88 88 88 88 88 0
1 88 88 88 88 88 88 88 88 88 88 88 89 89 89 0
1 89 89 89 89 89 89 89 89 89 89 89 89 89 89 0
1 89 89 89 89 89 89 89 90 90 90 90 90 90 90 0
1 90 90 90 90 90 90 90 90 90 90 90 90 90 90 0
1 90 90 90 90 90 90 91 91 91 91 91 91 91 91 0
1 91 91 91 91 91 91 91 91 91 91 91 91 91 91 0
1 91 91 91 91 91 91 91 91 91 92 92 92 92 92 0
1 92 92 92 92 92 92 92 92 92 92 92 92 92 92 0
1 92 92 92 92 93 93 93 93 93 93 93 93 93 93 0
1 93 93 93 93 93 93 93 93 93 93 93 93 93 93 0
1 94 94 94 94 94 94 94 94 94 94 94 94 94 94 0
1 94 94 94 94 94 94 94 94 94 94 94 94 94 94 0
1 95 95 95 95 95 95 95 95 95 95 95 95 95 95 0
1 95 95 95 95 95 95 95 95 95 96 96 96 96 96 0
1 96 96 96 96 96 96 96 96 96 96 96 96 96 96 0
1 96 96 96 96 96 96 96 97 97 97 97 97 97 97 0
1 97 97 97 97 97 97 97 97 97 97 97 97 97 97 0
1 97 97 98 98 98 98 98 98 98 98 98 98 98 98 0
1 98 98 98 98 98 98 99 99 99 99 99 99 99 99 0
1 99 99 99 99 99 99 99 99 99 99 99 99 99 99 0
1 99 99 99 99 99 99 99 99 100 100 100 100 100 100 0
1 100 100 100 100 100 100 100 100 100 100 100 100 100 100 0
1 100 100 100 100 100 100 100 100 100 100 100 100 100 100 0
1  0
1 7 24 34 53 57 75 103 111 187 200 202 218 230 314 0
1 377 402 436 448 462 468 478 488 519 531 542 550 570 611 0
1 635 682 684 706 784 789 815 921 926 940 946 972 974 991 0
1 1015 1025 1030 1032 1040 1053 1059 1065 1068 1098 1099 1104 1128 1131 0
1 1159 1162 1213 1216 1217 1220 1221 1234 1274 1276 1288 1304 1354 1375 0
1 1434 1436 1440 1454 1460 1505 1516 1526 1603 1605 1611 1624 1661 1676 0
1 1737 1738 1743 1750 1753 1757 1766 1787 1818 1825 1852 1870 1894 1899 0
1 1941 1970 1994 2028 2030 2085 2145 2150 2178 2179 2236 2244 2245 2254 0
1 2302 2306 2308 2316 2320 2337 2349 2381 2393 2402 2462 2469 2518 2607 0
1 2615 2641 2645 2670 2703 2731 2756 2831 2911 2937 2938 2942 2948 2951 0
1 2964 0
1  0
1 57 74 98 113 142 144 175 186 199 200 267 341 368 369 0
1 402 411 423 433 456 457 543 578 594 600 605 613 632 684 0
1 740 757 758 759 762 771 779 790 798 821 845 848 886 908 0
1 1010 1034 1065 1068 1095 1127 1134 1140 1141 1152 1182 1192 1257 1270 0
1 1279 1295 1317 1323 1338 1361 1411 1444 1449 1457 1470 1478 1489 1492 0
1 1516 1535 1545 1562 1580 1599 1600 1634 1643 1648 1654 1689 1717 1776 0
1 1855 1868 1898 1900 1903 1911 1919 1959 1964 1969 1972 1992 2035 2036 0
1 2090 2093 2095 2127 2144 2184 2225 2231 2243 2251 2253 2265 2363 2368 0
1 2395 2434 2441 2442 2459 2460 2489 2506 2507 2536 2567 2588 2591 2614 0
1 2636 2641 2654 2661 2733 2747 2804 2806 2807 2813 2833 2845 2846 2856 0
1 2894 2898 2915 2916 2924 2935 2941 2946 0
1  0
1 13 14 56 74 79 90 178 207 221 233 251 252 254 258 0
1 348 351 401 402 470 569 584 593 605 682 697 780 822 837 0
1 853 859 879 906 933 956 957 981 1026 1055 1056 1058 1060 1117 0
1 1135 1137 1255 1279 1338 1344 1346 1400 1417 1428 1458 1465 1474 1502 0
1 1562 1571 1622 1655 1667 1696 1698 1745 1775 1782 1819 1834 1855 1868 0
1 1871 1900 2023 2026 2077 2102 2170 2211 2213 2217 2225 2248 2277 2280 0
1 2287 2295 2338 2343 2379 2395 2428 2432 2463 2490 2494 2497 2512 2516 0
1 2568 2591 2674 2724 2726 2732 2748 2751 2758 2800 2802 2827 2831 2877 0
1 2900 2925 2950 2959 2967 2991 0
1  0
1 39 74 112 123 155 161 186 187 191 206 214 235 263 275 0
1 305 322 323 326 333 353 355 356 364 386 408 426 429 435 0
1 470 472 479 480 506 526 562 567 605 690 701 710 719 725 0
1 745 764 797 818 854 942 962 971 1004 1052 1055 1058 1062 1078 0
1 1119 1142 1143 1158 1185 1216 1253 1256 1276 1294 1302 1325 1335 1336 0
1 1412 1434 1437 1443 1446 1459 1466 1480 1489 1519 1524 1531 1559 1608 0
1 1673 1702 1715 1728 1733 1792 1825 1847 1859 1860 1958 1967 1975 1981 0
1 2022 2053 2065 2088 2115 2131 2144 2208 2309 2322 2324 2333 2337 2338 0
1 2360 2403 2417 2424 2437 2439 2454 2455 2475 2595 2604 2611 2624 2627 0
1 2670 2678 2713 2750 2758 2766 2768 2793 2794 2813 2862 2868 2897 2913 0
1 2927 2929 2988 0
1  0
1 50 73 91 107 161 170 187 188 197 213 214 235 251 279 0
1 309 316 333 346 362 370 372 373 382 399 402 419 451 460 0
1 487 503 512 543 546 563 573 575 610 653 672 685 690 694 0
1 738 746 766 802 845 855 887 903 904 1005 1044 1055 1110 1112 0
1 1138 1161 1236 1297 1317 1332 1367 1375 1419 1499 1507 1510 1577 1593 0
1 1622 1630 1659 1662 1678 1715 1745 1764 1777 1792 1809 1816 1839 1840 0
1 1878 1880 1897 1900 1916 1923 1969 1988 2001 2005 2012 2035 2065 2071 0
1 2087 2178 2194 2203 2229 2233 2243 2255 2392 2415 2442 2443 2445 2462 0
1 2513 2543 2555 2559 2590 2596 2598 2633 2635 2636 2640 2737 2740 2745 0
1 2773 2781 2783 2791 2807 2810 2856 2878 2884 2908 2916 2927 2965 2991 0
1  0
1 46 49 153 156 163 166 203 291 334 338 346 357 368 385 0
1 436 449 513 565 590 601 628 636 686 713 723 728 733 736 0
1 786 793 819 848 869 983 989 1029 1052 1062 1066 1075 1138 1144 0
1 1214 1273 1288 1293 1318 1337 1370 1374 1406 1456 1461 1489 1503 1510 0
1 1522 1535 1543 1578 1599 1668 1679 1703 1708 1717 1738 1779 1794 1819 0
1 1852 1936 1939 1955 1973 2022 2024 2036 2059 2063 2085 2107 2123 2124 0
1 2174 2179 2193 2200 2225 2230 2253 2267 2297 2299 2313 2319 2367 2417 0
1 2444 2455 2456 2499 2578 2592 2597 2626 2699 2733 2747 2759 2764 2781 0
1 2813 2849 2861 2883 2888 2892 2896 2898 2976 2979 0
1  0
1 37 38 48 92 117 143 149 163 187 214 245 280 299 366 0
1 408 433 455 507 509 520 535 577 598 630 645 666 681 695 0
1 716 720 728 731 748 751 780 799 808 828 829 844 865 881 0
1 916 982 1021 1051 1088 1089 1098 1109 1116 1146 1210 1237 1262 1285 0
1 1319 1348 1360 1371 1398 1399 1402 1432 1442 1445 1453 1477 1489 1492 0
1 1553 1572 1573 1574 1582 1614 1646 1688 1717 1724 1740 1746 1763 1772 0
1 1823 1826 1833 1843 1854 1877 1898 1905 1919 1928 1954 1992 1997 2011 0
1 2088 2148 2173 2210 2235 2237 2262 2264 2285 2291 2311 2319 2328 2337 0
1 2355 2374 2382 2385 2395 2441 2495 2496 2524 2556 2656 2675 2694 2702 0
1 2716 2782 2812 2826 2912 2983 2986 2992 2995 0
1  0
1 60 71 81 107 156 179 193 217 218 268 276 288 299 310 0
1 329 350 359 367 397 402 408 416 427 449 488 514 574 602 0
1 619 656 675 684 691 715 746 759 761 774 790 794 804 824 0
1 846 876 879 897 913 925 938 939 950 957 965 993 1007 1024 0
1 1032 1047 1049 1050 1079 1089 1091 1106 1130 1131 1198 1216 1236 1246 0
1 1268 1284 1296 1316 1343 1370 1382 1408 1444 1467 1474 1489 1501 1573 0
1 1668 1669 1673 1711 1737 1743 1750 1773 1839 1846 1855 1870 1871 1874 0
1 1918 1928 1937 1939 1941 1996 2006 2007 2018 2041 2108 2109 2111 2117 0
1 2149 2150 2162 2200 2210 2219 2241 2256 2258 2290 2312 2325 2340 2348 0
1 2393 2396 2397 2427 2431 2436 2443 2458 2487 2497 2523 2539 2591 2610 0
1 2647 2716 2744 2786 2804 2807 2828 2833 2877 2889 2929 2956 2973 2982 0
1  0
1  0
1 47 63 76 107 120 130 138 154 200 223 254 256 257 288 0
1 303 364 367 375 390 392 423 437 439 440 521 547 555 560 0
1 599 602 605 620 629 633 652 666 684 693 696 712 765 782 0
1 827 872 877 878 920 924 942 966 1017 1029 1082 1092 1112 1127 0
1 1142 1153 1177 1187 1197 1206 1216 1236 1254 1256 1264 1266 1272 1283 0
1 1298 1349 1356 1376 1412 1421 1442 1456 1475 1494 1529 1537 1549 1577 0
1 1592 1594 1597 1640 1654 1656 1676 1679 1691 1692 1694 1695 1746 1781 0
1 1786 1787 1810 1827 1835 1848 1857 1870 1901 1905 1924 1962 1966 1973 0
1 2005 2009 2026 2029 2079 2110 2112 2164 2176 2202 2212 2225 2280 2287 0
